18 4
82 88 54 50 57 78 28 22 36 46 62 95 34 64 95 47 61 96
10 59 100 73 29 64 57 92 88 99 94 66 79 56 90 70 65 91
81 51 15 68 15 20 71 78 84 80 54 70 55 75 24 40 33 96
81 43 84 59 81 73 43 62 42 14 84 28 84 64 19 51 21 19
